\ Model QCP
\ LP format - for model browsing. Use MPS format to capture full model detail.
Minimize
  z + 1.27 y
Subject To
 Cut_0: z + [ 0.1534653465346536 y ^2 ] >= 2137.638613861386
 Cut_1: z + [ ] >= 1961
Bounds
 1961 <= z <= 2908
 22.82542442102665 <= y <= 33.92639090737475
End
